10
0 88 11 85 13 78 11 18 17 84
88 0 17 58 40 65 51 16 69 39
11 17 0 64 81 75 18 67 67 13
85 58 64 0 76 71 17 91 77 55
13 40 81 76 0 49 17 48 15 33
78 65 75 71 49 0 19 12 96 41
11 51 18 17 17 19 0 48 33 12
18 16 67 91 48 12 48 0 35 96
17 69 67 77 15 96 33 35 0 73
84 39 13 55 33 41 12 96 73 0
